c WARNING: for repeatability, setting FPU to use double precision
d VARIABLES            200964       
d CONSTRAINTS          918879       
c ============================[ Problem Statistics ]=============================
c |                                                                             |
c |  Number of variables:        200964                                         |
c |  Number of clauses:          918879                                         |
c |  Parse time:                   0.15 s                                       |
c |                                                                             |
c ============================[ Search Statistics ]==============================
c | Conflicts |          ORIGINAL         |          LEARNT          | Progress |
c |           |    Vars  Clauses Literals |    Limit  Clauses Lit/Cl |          |
c ===============================================================================
c |       100 |  177361   851791  2059562 |   312323       98     12 | 11.745 % |
c |       250 |  177361   851791  2059562 |   343555      248     38 | 11.745 % |
c |       475 |  177361   851791  2059562 |   377911      473     53 | 11.745 % |
c |       812 |  177361   851506  2058878 |   415702      796     56 | 11.745 % |
c |      1318 |  177361   851506  2058878 |   457272     1302     98 | 11.745 % |
c |      2077 |  177361   851506  2058878 |   502999     2061     89 | 11.745 % |
c |      3216 |  177361   851506  2058878 |   553299     3200     89 | 11.745 % |
c |      4924 |  177361   851506  2058878 |   608629     4908     79 | 11.745 % |
c |      7486 |  177361   851506  2058878 |   669492     7470     84 | 11.745 % |
c |     11330 |  177361   851506  2058878 |   736442    11314     92 | 11.745 % |
c |     17096 |  177361   851506  2058878 |   810086    17080    110 | 11.745 % |
c |     25745 |  177361   851506  2058878 |   891095    25729    118 | 11.745 % |
c |     38719 |  177361   851506  2058878 |   980204    38703    112 | 11.745 % |
c |     58180 |  177361   851506  2058878 |  1078224    58164    109 | 11.745 % |
c |     87372 |  177361   851506  2058878 |  1186047    87356    111 | 11.745 % |
c |    131161 |  177193   850666  2056862 |  1304652   131129    123 | 11.828 % |
c |    196845 |  177193   850666  2056862 |  1435117   196813    121 | 11.828 % |
c |    295371 |  177193   850666  2056862 |  1578629   295339    121 | 11.828 % |
c |    443160 |  177193   850666  2056862 |  1736492   443128    127 | 11.828 % |
c |    664843 |  177170   850552  2056588 |  1910141   664809    143 | 11.840 % |
c |    997368 |  177170   850552  2056588 |  2101155   997334    134 | 11.840 % |
c |   1496156 |  177159   850498  2056458 |  2311270  1496121    132 | 11.845 % |
c ===============================================================================
c restarts              : 3708
c conflicts             : 1913796        (1068 /sec)
c decisions             : 5071265        (0.00 % random) (2830 /sec)
c propagations          : 4942299606     (2757783 /sec)
c conflict literals     : 255940206      (33.87 % deleted)
d RESTARTS             3708
d FAILURES             1913796      
d NODES                5071265      
d BACKTRACKS           5071265      
d PROPAGATIONS         4942299606   
d NOGOODSIZE           133.73 
d MEMORY               1619.00 
d TIME                 1792.13 

s UNKNOWN
